parte-2/parte-2.txt
Problem:    parte
Rows:       122
Columns:    120 (120 integer, 120 binary)
Non-zeros:  356
Status:     INTEGER OPTIMAL
Objective:  Coste_Retardo = 4500 (MINimum)

   No.   Row name        Activity     Lower bound   Upper bound
------ ------------    ------------- ------------- -------------
     1 Coste_Retardo
                                4500                             
     2 Asignacion_Slot[AV1]
                                   1             1             = 
     3 Asignacion_Slot[AV2]
                                   1             1             = 
     4 Asignacion_Slot[AV3]
                                   1             1             = 
     5 Asignacion_Slot[AV4]
                                   1             1             = 
     6 Asignacion_Slot[AV5]
                                   1             1             = 
     7 Slot_Unico[1,P1]
                                   0                           1 
     8 Slot_Unico[1,P2]
                                   0                           1 
     9 Slot_Unico[1,P3]
                                   1                           1 
    10 Slot_Unico[1,P4]
                                   0                           1 
    11 Slot_Unico[2,P1]
                                   0                           1 
    12 Slot_Unico[2,P2]
                                   0                           1 
    13 Slot_Unico[2,P3]
                                   1                           1 
    14 Slot_Unico[2,P4]
                                   0                           1 
    15 Slot_Unico[3,P1]
                                   0                           1 
    16 Slot_Unico[3,P2]
                                   0                           1 
    17 Slot_Unico[3,P3]
                                   0                           1 
    18 Slot_Unico[3,P4]
                                   0                           1 
    19 Slot_Unico[4,P1]
                                   0                           1 
    20 Slot_Unico[4,P2]
                                   1                           1 
    21 Slot_Unico[4,P3]
                                   0                           1 
    22 Slot_Unico[4,P4]
                                   0                           1 
    23 Slot_Unico[5,P1]
                                   1                           1 
    24 Slot_Unico[5,P2]
                                   0                           1 
    25 Slot_Unico[5,P3]
                                   0                           1 
    26 Slot_Unico[5,P4]
                                   0                           1 
    27 Slot_Unico[6,P1]
                                   0                           1 
    28 Slot_Unico[6,P2]
                                   0                           1 
    29 Slot_Unico[6,P3]
                                   0                           1 
    30 Slot_Unico[6,P4]
                                   1                           1 
    31 Disponibilidad_Slot[AV1,2,P1]
                                   0                          -0 
    32 Disponibilidad_Slot[AV1,2,P2]
                                   0                          -0 
    33 Disponibilidad_Slot[AV1,2,P3]
                                   1                           1 
    34 Disponibilidad_Slot[AV1,2,P4]
                                   0                          -0 
    35 Disponibilidad_Slot[AV1,3,P1]
                                   0                          -0 
    36 Disponibilidad_Slot[AV1,3,P2]
                                   0                           1 
    37 Disponibilidad_Slot[AV1,3,P3]
                                   0                           1 
    38 Disponibilidad_Slot[AV1,3,P4]
                                   0                          -0 
    39 Disponibilidad_Slot[AV1,4,P1]
                                   0                          -0 
    40 Disponibilidad_Slot[AV1,4,P2]
                                   0                           1 
    41 Disponibilidad_Slot[AV1,4,P3]
                                   0                          -0 
    42 Disponibilidad_Slot[AV1,4,P4]
                                   0                          -0 
    43 Disponibilidad_Slot[AV1,5,P1]
                                   0                           1 
    44 Disponibilidad_Slot[AV1,5,P2]
                                   0                          -0 
    45 Disponibilidad_Slot[AV1,5,P3]
                                   0                          -0 
    46 Disponibilidad_Slot[AV1,5,P4]
                                   0                           1 
    47 Disponibilidad_Slot[AV1,6,P1]
                                   0                           1 
    48 Disponibilidad_Slot[AV1,6,P2]
                                   0                          -0 
    49 Disponibilidad_Slot[AV1,6,P3]
                                   0                           1 
    50 Disponibilidad_Slot[AV1,6,P4]
                                   0                           1 
    51 Disponibilidad_Slot[AV2,1,P1]
                                   0                          -0 
    52 Disponibilidad_Slot[AV2,1,P2]
                                   0                          -0 
    53 Disponibilidad_Slot[AV2,1,P3]
                                   1                           1 
    54 Disponibilidad_Slot[AV2,1,P4]
                                   0                           1 
    55 Disponibilidad_Slot[AV2,2,P1]
                                   0                          -0 
    56 Disponibilidad_Slot[AV2,2,P2]
                                   0                          -0 
    57 Disponibilidad_Slot[AV2,2,P3]
                                   0                           1 
    58 Disponibilidad_Slot[AV2,2,P4]
                                   0                          -0 
    59 Disponibilidad_Slot[AV2,3,P1]
                                   0                          -0 
    60 Disponibilidad_Slot[AV2,3,P2]
                                   0                           1 
    61 Disponibilidad_Slot[AV2,3,P3]
                                   0                           1 
    62 Disponibilidad_Slot[AV2,3,P4]
                                   0                          -0 
    63 Disponibilidad_Slot[AV3,4,P1]
                                   0                          -0 
    64 Disponibilidad_Slot[AV3,4,P2]
                                   1                           1 
    65 Disponibilidad_Slot[AV3,4,P3]
                                   0                          -0 
    66 Disponibilidad_Slot[AV3,4,P4]
                                   0                          -0 
    67 Disponibilidad_Slot[AV3,5,P1]
                                   0                           1 
    68 Disponibilidad_Slot[AV3,5,P2]
                                   0                          -0 
    69 Disponibilidad_Slot[AV3,5,P3]
                                   0                          -0 
    70 Disponibilidad_Slot[AV3,5,P4]
                                   0                           1 
    71 Disponibilidad_Slot[AV4,5,P1]
                                   1                           1 
    72 Disponibilidad_Slot[AV4,5,P2]
                                   0                          -0 
    73 Disponibilidad_Slot[AV4,5,P3]
                                   0                          -0 
    74 Disponibilidad_Slot[AV4,5,P4]
                                   0                           1 
    75 Disponibilidad_Slot[AV4,6,P1]
                                   0                           1 
    76 Disponibilidad_Slot[AV4,6,P2]
                                   0                          -0 
    77 Disponibilidad_Slot[AV4,6,P3]
                                   0                           1 
    78 Disponibilidad_Slot[AV4,6,P4]
                                   0                           1 
    79 Disponibilidad_Slot[AV5,6,P1]
                                   0                           1 
    80 Disponibilidad_Slot[AV5,6,P2]
                                   0                          -0 
    81 Disponibilidad_Slot[AV5,6,P3]
                                   0                           1 
    82 Disponibilidad_Slot[AV5,6,P4]
                                   1                           1 
    83 No_Aterr_Consec[AV1,2,P1]
                                   0                           1 
    84 No_Aterr_Consec[AV1,2,P2]
                                   0                           1 
    85 No_Aterr_Consec[AV1,2,P3]
                                   1                           1 
    86 No_Aterr_Consec[AV1,2,P4]
                                   0                           1 
    87 No_Aterr_Consec[AV1,3,P1]
                                   0                           1 
    88 No_Aterr_Consec[AV1,3,P2]
                                   0                           1 
    89 No_Aterr_Consec[AV1,3,P3]
                                   0                           1 
    90 No_Aterr_Consec[AV1,3,P4]
                                   0                           1 
    91 No_Aterr_Consec[AV1,4,P1]
                                   0                           1 
    92 No_Aterr_Consec[AV1,4,P2]
                                   0                           1 
    93 No_Aterr_Consec[AV1,4,P3]
                                   0                           1 
    94 No_Aterr_Consec[AV1,4,P4]
                                   0                           1 
    95 No_Aterr_Consec[AV1,5,P1]
                                   0                           1 
    96 No_Aterr_Consec[AV1,5,P2]
                                   0                           1 
    97 No_Aterr_Consec[AV1,5,P3]
                                   0                           1 
    98 No_Aterr_Consec[AV1,5,P4]
                                   0                           1 
    99 No_Aterr_Consec[AV2,1,P1]
                                   0                           1 
   100 No_Aterr_Consec[AV2,1,P2]
                                   0                           1 
   101 No_Aterr_Consec[AV2,1,P3]
                                   1                           1 
   102 No_Aterr_Consec[AV2,1,P4]
                                   0                           1 
   103 No_Aterr_Consec[AV2,2,P1]
                                   0                           1 
   104 No_Aterr_Consec[AV2,2,P2]
                                   0                           1 
   105 No_Aterr_Consec[AV2,2,P3]
                                   0                           1 
   106 No_Aterr_Consec[AV2,2,P4]
                                   0                           1 
   107 No_Aterr_Consec[AV2,3,P1]
                                   0                           1 
   108 No_Aterr_Consec[AV2,3,P2]
                                   0                           1 
   109 No_Aterr_Consec[AV2,3,P3]
                                   0                           1 
   110 No_Aterr_Consec[AV2,3,P4]
                                   0                           1 
   111 No_Aterr_Consec[AV3,4,P1]
                                   0                           1 
   112 No_Aterr_Consec[AV3,4,P2]
                                   1                           1 
   113 No_Aterr_Consec[AV3,4,P3]
                                   0                           1 
   114 No_Aterr_Consec[AV3,4,P4]
                                   0                           1 
   115 No_Aterr_Consec[AV3,5,P1]
                                   0                           1 
   116 No_Aterr_Consec[AV3,5,P2]
                                   0                           1 
   117 No_Aterr_Consec[AV3,5,P3]
                                   0                           1 
   118 No_Aterr_Consec[AV3,5,P4]
                                   0                           1 
   119 No_Aterr_Consec[AV4,5,P1]
                                   1                           1 
   120 No_Aterr_Consec[AV4,5,P2]
                                   0                           1 
   121 No_Aterr_Consec[AV4,5,P3]
                                   0                           1 
   122 No_Aterr_Consec[AV4,5,P4]
                                   0                           1 

   No. Column name       Activity     Lower bound   Upper bound
------ ------------    ------------- ------------- -------------
     1 x[AV1,2,P1]  *              0             0             1 
     2 x[AV1,2,P2]  *              0             0             1 
     3 x[AV1,2,P3]  *              1             0             1 
     4 x[AV1,2,P4]  *              0             0             1 
     5 x[AV1,3,P1]  *              0             0             1 
     6 x[AV1,3,P2]  *              0             0             1 
     7 x[AV1,3,P3]  *              0             0             1 
     8 x[AV1,3,P4]  *              0             0             1 
     9 x[AV1,4,P1]  *              0             0             1 
    10 x[AV1,4,P2]  *              0             0             1 
    11 x[AV1,4,P3]  *              0             0             1 
    12 x[AV1,4,P4]  *              0             0             1 
    13 x[AV1,5,P1]  *              0             0             1 
    14 x[AV1,5,P2]  *              0             0             1 
    15 x[AV1,5,P3]  *              0             0             1 
    16 x[AV1,5,P4]  *              0             0             1 
    17 x[AV1,6,P1]  *              0             0             1 
    18 x[AV1,6,P2]  *              0             0             1 
    19 x[AV1,6,P3]  *              0             0             1 
    20 x[AV1,6,P4]  *              0             0             1 
    21 x[AV2,1,P1]  *              0             0             1 
    22 x[AV2,1,P2]  *              0             0             1 
    23 x[AV2,1,P3]  *              1             0             1 
    24 x[AV2,1,P4]  *              0             0             1 
    25 x[AV2,2,P1]  *              0             0             1 
    26 x[AV2,2,P2]  *              0             0             1 
    27 x[AV2,2,P3]  *              0             0             1 
    28 x[AV2,2,P4]  *              0             0             1 
    29 x[AV2,3,P1]  *              0             0             1 
    30 x[AV2,3,P2]  *              0             0             1 
    31 x[AV2,3,P3]  *              0             0             1 
    32 x[AV2,3,P4]  *              0             0             1 
    33 x[AV3,4,P1]  *              0             0             1 
    34 x[AV3,4,P2]  *              1             0             1 
    35 x[AV3,4,P3]  *              0             0             1 
    36 x[AV3,4,P4]  *              0             0             1 
    37 x[AV3,5,P1]  *              0             0             1 
    38 x[AV3,5,P2]  *              0             0             1 
    39 x[AV3,5,P3]  *              0             0             1 
    40 x[AV3,5,P4]  *              0             0             1 
    41 x[AV4,5,P1]  *              1             0             1 
    42 x[AV4,5,P2]  *              0             0             1 
    43 x[AV4,5,P3]  *              0             0             1 
    44 x[AV4,5,P4]  *              0             0             1 
    45 x[AV4,6,P1]  *              0             0             1 
    46 x[AV4,6,P2]  *              0             0             1 
    47 x[AV4,6,P3]  *              0             0             1 
    48 x[AV4,6,P4]  *              0             0             1 
    49 x[AV5,6,P1]  *              0             0             1 
    50 x[AV5,6,P2]  *              0             0             1 
    51 x[AV5,6,P3]  *              0             0             1 
    52 x[AV5,6,P4]  *              1             0             1 
    53 x[AV1,1,P1]  *              0             0             1 
    54 x[AV3,1,P1]  *              0             0             1 
    55 x[AV4,1,P1]  *              0             0             1 
    56 x[AV5,1,P1]  *              0             0             1 
    57 x[AV1,1,P2]  *              0             0             1 
    58 x[AV3,1,P2]  *              0             0             1 
    59 x[AV4,1,P2]  *              0             0             1 
    60 x[AV5,1,P2]  *              0             0             1 
    61 x[AV1,1,P3]  *              0             0             1 
    62 x[AV3,1,P3]  *              0             0             1 
    63 x[AV4,1,P3]  *              0             0             1 
    64 x[AV5,1,P3]  *              0             0             1 
    65 x[AV1,1,P4]  *              0             0             1 
    66 x[AV3,1,P4]  *              0             0             1 
    67 x[AV4,1,P4]  *              0             0             1 
    68 x[AV5,1,P4]  *              0             0             1 
    69 x[AV3,2,P1]  *              0             0             1 
    70 x[AV4,2,P1]  *              0             0             1 
    71 x[AV5,2,P1]  *              0             0             1 
    72 x[AV3,2,P2]  *              0             0             1 
    73 x[AV4,2,P2]  *              0             0             1 
    74 x[AV5,2,P2]  *              0             0             1 
    75 x[AV3,2,P3]  *              0             0             1 
    76 x[AV4,2,P3]  *              0             0             1 
    77 x[AV5,2,P3]  *              0             0             1 
    78 x[AV3,2,P4]  *              0             0             1 
    79 x[AV4,2,P4]  *              0             0             1 
    80 x[AV5,2,P4]  *              0             0             1 
    81 x[AV3,3,P1]  *              0             0             1 
    82 x[AV4,3,P1]  *              0             0             1 
    83 x[AV5,3,P1]  *              0             0             1 
    84 x[AV3,3,P2]  *              0             0             1 
    85 x[AV4,3,P2]  *              0             0             1 
    86 x[AV5,3,P2]  *              0             0             1 
    87 x[AV3,3,P3]  *              0             0             1 
    88 x[AV4,3,P3]  *              0             0             1 
    89 x[AV5,3,P3]  *              0             0             1 
    90 x[AV3,3,P4]  *              0             0             1 
    91 x[AV4,3,P4]  *              0             0             1 
    92 x[AV5,3,P4]  *              0             0             1 
    93 x[AV2,4,P1]  *              0             0             1 
    94 x[AV4,4,P1]  *              0             0             1 
    95 x[AV5,4,P1]  *              0             0             1 
    96 x[AV2,4,P2]  *              0             0             1 
    97 x[AV4,4,P2]  *              0             0             1 
    98 x[AV5,4,P2]  *              0             0             1 
    99 x[AV2,4,P3]  *              0             0             1 
   100 x[AV4,4,P3]  *              0             0             1 
   101 x[AV5,4,P3]  *              0             0             1 
   102 x[AV2,4,P4]  *              0             0             1 
   103 x[AV4,4,P4]  *              0             0             1 
   104 x[AV5,4,P4]  *              0             0             1 
   105 x[AV2,5,P1]  *              0             0             1 
   106 x[AV5,5,P1]  *              0             0             1 
   107 x[AV2,5,P2]  *              0             0             1 
   108 x[AV5,5,P2]  *              0             0             1 
   109 x[AV2,5,P3]  *              0             0             1 
   110 x[AV5,5,P3]  *              0             0             1 
   111 x[AV2,5,P4]  *              0             0             1 
   112 x[AV5,5,P4]  *              0             0             1 
   113 x[AV2,6,P1]  *              0             0             1 
   114 x[AV3,6,P1]  *              0             0             1 
   115 x[AV2,6,P2]  *              0             0             1 
   116 x[AV3,6,P2]  *              0             0             1 
   117 x[AV2,6,P3]  *              0             0             1 
   118 x[AV3,6,P3]  *              0             0             1 
   119 x[AV2,6,P4]  *              0             0             1 
   120 x[AV3,6,P4]  *              0             0             1 

Integer feasibility conditions:

KKT.PE: max.abs.err = 0.00e+00 on row 0
        max.rel.err = 0.00e+00 on row 0
        High quality

KKT.PB: max.abs.err = 0.00e+00 on row 0
        max.rel.err = 0.00e+00 on row 0
        High quality

End of output
